logs/drand/ip/drand-07-075-0.lp
\ LP format - for model browsing. Use MPS format to capture full model detail.
Minimize
  z0 + z1 + z2 + z3 + z4 + z5 + z6 + z7
Subject To
 R0: x0,1_21 + x0,1_38 + x0,1_43 + x0,1_48 + x0,1_58 + x0,1_59 + x0,1_69
   - z1 <= 0
 R1: x0,2_21 + x0,2_38 + x0,2_43 + x0,2_48 + x0,2_58 + x0,2_59 + x0,2_69
   - z2 <= 0
 R2: x0,3_21 + x0,3_38 + x0,3_43 + x0,3_48 + x0,3_58 + x0,3_59 + x0,3_69
   - z3 <= 0
 R3: x0,4_21 + x0,4_38 + x0,4_43 + x0,4_48 + x0,4_58 + x0,4_59 + x0,4_69
   - z4 <= 0
 R4: x0,5_21 + x0,5_38 + x0,5_43 + x0,5_48 + x0,5_58 + x0,5_59 + x0,5_69
   - z5 <= 0
 R5: x0,6_21 + x0,6_38 + x0,6_43 + x0,6_48 + x0,6_58 + x0,6_59 + x0,6_69
   - z6 <= 0
 R6: x0,7_21 + x0,7_38 + x0,7_43 + x0,7_48 + x0,7_58 + x0,7_59 + x0,7_69
   - z7 <= 0
 R7: x1,2_21 + x1,2_38 + x1,2_43 + x1,2_48 + x1,2_58 + x1,2_59 + x1,2_69
   - z2 <= 0
 R8: x1,3_21 + x1,3_38 + x1,3_43 + x1,3_48 + x1,3_58 + x1,3_59 + x1,3_69
   - z3 <= 0
 R9: x1,4_21 + x1,4_38 + x1,4_43 + x1,4_48 + x1,4_58 + x1,4_59 + x1,4_69
   - z4 <= 0
 R10: x1,5_21 + x1,5_38 + x1,5_43 + x1,5_48 + x1,5_58 + x1,5_59 + x1,5_69
   - z5 <= 0
 R11: x1,6_21 + x1,6_38 + x1,6_43 + x1,6_48 + x1,6_58 + x1,6_59 + x1,6_69
   - z6 <= 0
 R12: x1,7_21 + x1,7_38 + x1,7_43 + x1,7_48 + x1,7_58 + x1,7_59 + x1,7_69
   - z7 <= 0
 R13: x2,3_21 + x2,3_38 + x2,3_43 + x2,3_48 + x2,3_58 + x2,3_59 + x2,3_69
   - z3 <= 0
 R14: x2,4_21 + x2,4_38 + x2,4_43 + x2,4_48 + x2,4_58 + x2,4_59 + x2,4_69
   - z4 <= 0
 R15: x2,5_21 + x2,5_38 + x2,5_43 + x2,5_48 + x2,5_58 + x2,5_59 + x2,5_69
   - z5 <= 0
 R16: x2,6_21 + x2,6_38 + x2,6_43 + x2,6_48 + x2,6_58 + x2,6_59 + x2,6_69
   - z6 <= 0
 R17: x2,7_21 + x2,7_38 + x2,7_43 + x2,7_48 + x2,7_58 + x2,7_59 + x2,7_69
   - z7 <= 0
 R18: x3,4_21 + x3,4_38 + x3,4_43 + x3,4_48 + x3,4_58 + x3,4_59 + x3,4_69
   - z4 <= 0
 R19: x3,5_21 + x3,5_38 + x3,5_43 + x3,5_48 + x3,5_58 + x3,5_59 + x3,5_69
   - z5 <= 0
 R20: x3,6_21 + x3,6_38 + x3,6_43 + x3,6_48 + x3,6_58 + x3,6_59 + x3,6_69
   - z6 <= 0
 R21: x3,7_21 + x3,7_38 + x3,7_43 + x3,7_48 + x3,7_58 + x3,7_59 + x3,7_69
   - z7 <= 0
 R22: x4,5_21 + x4,5_38 + x4,5_43 + x4,5_48 + x4,5_58 + x4,5_59 + x4,5_69
   - z5 <= 0
 R23: x4,6_21 + x4,6_38 + x4,6_43 + x4,6_48 + x4,6_58 + x4,6_59 + x4,6_69
   - z6 <= 0
 R24: x4,7_21 + x4,7_38 + x4,7_43 + x4,7_48 + x4,7_58 + x4,7_59 + x4,7_69
   - z7 <= 0
 R25: x5,6_21 + x5,6_38 + x5,6_43 + x5,6_48 + x5,6_58 + x5,6_59 + x5,6_69
   - z6 <= 0
 R26: x5,7_21 + x5,7_38 + x5,7_43 + x5,7_48 + x5,7_58 + x5,7_59 + x5,7_69
   - z7 <= 0
 R27: x6,7_21 + x6,7_38 + x6,7_43 + x6,7_48 + x6,7_58 + x6,7_59 + x6,7_69
   - z7 <= 0
 R28: x0,1_21 + x0,2_21 + x0,3_21 + x0,4_21 + x0,5_21 + x0,6_21 + x0,7_21
   + x1,2_21 + x1,3_21 + x1,4_21 + x1,5_21 + x1,6_21 + x1,7_21 + x2,3_21
   + x2,4_21 + x2,5_21 + x2,6_21 + x2,7_21 + x3,4_21 + x3,5_21 + x3,6_21
   + x3,7_21 + x4,5_21 + x4,6_21 + x4,7_21 + x5,6_21 + x5,7_21 + x6,7_21
   = 1
 R29: x0,1_38 + x0,2_38 + x0,3_38 + x0,4_38 + x0,5_38 + x0,6_38 + x0,7_38
   + x1,2_38 + x1,3_38 + x1,4_38 + x1,5_38 + x1,6_38 + x1,7_38 + x2,3_38
   + x2,4_38 + x2,5_38 + x2,6_38 + x2,7_38 + x3,4_38 + x3,5_38 + x3,6_38
   + x3,7_38 + x4,5_38 + x4,6_38 + x4,7_38 + x5,6_38 + x5,7_38 + x6,7_38
   = 1
 R30: x0,1_43 + x0,2_43 + x0,3_43 + x0,4_43 + x0,5_43 + x0,6_43 + x0,7_43
   + x1,2_43 + x1,3_43 + x1,4_43 + x1,5_43 + x1,6_43 + x1,7_43 + x2,3_43
   + x2,4_43 + x2,5_43 + x2,6_43 + x2,7_43 + x3,4_43 + x3,5_43 + x3,6_43
   + x3,7_43 + x4,5_43 + x4,6_43 + x4,7_43 + x5,6_43 + x5,7_43 + x6,7_43
   = 1
 R31: x0,1_48 + x0,2_48 + x0,3_48 + x0,4_48 + x0,5_48 + x0,6_48 + x0,7_48
   + x1,2_48 + x1,3_48 + x1,4_48 + x1,5_48 + x1,6_48 + x1,7_48 + x2,3_48
   + x2,4_48 + x2,5_48 + x2,6_48 + x2,7_48 + x3,4_48 + x3,5_48 + x3,6_48
   + x3,7_48 + x4,5_48 + x4,6_48 + x4,7_48 + x5,6_48 + x5,7_48 + x6,7_48
   = 1
 R32: x0,1_58 + x0,2_58 + x0,3_58 + x0,4_58 + x0,5_58 + x0,6_58 + x0,7_58
   + x1,2_58 + x1,3_58 + x1,4_58 + x1,5_58 + x1,6_58 + x1,7_58 + x2,3_58
   + x2,4_58 + x2,5_58 + x2,6_58 + x2,7_58 + x3,4_58 + x3,5_58 + x3,6_58
   + x3,7_58 + x4,5_58 + x4,6_58 + x4,7_58 + x5,6_58 + x5,7_58 + x6,7_58
   = 1
 R33: x0,1_59 + x0,2_59 + x0,3_59 + x0,4_59 + x0,5_59 + x0,6_59 + x0,7_59
   + x1,2_59 + x1,3_59 + x1,4_59 + x1,5_59 + x1,6_59 + x1,7_59 + x2,3_59
   + x2,4_59 + x2,5_59 + x2,6_59 + x2,7_59 + x3,4_59 + x3,5_59 + x3,6_59
   + x3,7_59 + x4,5_59 + x4,6_59 + x4,7_59 + x5,6_59 + x5,7_59 + x6,7_59
   = 1
 R34: x0,1_69 + x0,2_69 + x0,3_69 + x0,4_69 + x0,5_69 + x0,6_69 + x0,7_69
   + x1,2_69 + x1,3_69 + x1,4_69 + x1,5_69 + x1,6_69 + x1,7_69 + x2,3_69
   + x2,4_69 + x2,5_69 + x2,6_69 + x2,7_69 + x3,4_69 + x3,5_69 + x3,6_69
   + x3,7_69 + x4,5_69 + x4,6_69 + x4,7_69 + x5,6_69 + x5,7_69 + x6,7_69
   = 1
 R35: p0 - p1 <= -1
 R36: - 21 x0,1_21 - p0 + p1 >= 0
 R37: 336 x0,1_21 - p0 + p1 <= 357
 R38: - 38 x0,1_38 - p0 + p1 >= 0
 R39: 336 x0,1_38 - p0 + p1 <= 374
 R40: - 43 x0,1_43 - p0 + p1 >= 0
 R41: 336 x0,1_43 - p0 + p1 <= 379
 R42: - 48 x0,1_48 - p0 + p1 >= 0
 R43: 336 x0,1_48 - p0 + p1 <= 384
 R44: - 58 x0,1_58 - p0 + p1 >= 0
 R45: 336 x0,1_58 - p0 + p1 <= 394
 R46: - 59 x0,1_59 - p0 + p1 >= 0
 R47: 336 x0,1_59 - p0 + p1 <= 395
 R48: - 69 x0,1_69 - p0 + p1 >= 0
 R49: 336 x0,1_69 - p0 + p1 <= 405
 R50: p0 - p2 <= -1
 R51: - 21 x0,2_21 - p0 + p2 >= 0
 R52: 336 x0,2_21 - p0 + p2 <= 357
 R53: - 38 x0,2_38 - p0 + p2 >= 0
 R54: 336 x0,2_38 - p0 + p2 <= 374
 R55: - 43 x0,2_43 - p0 + p2 >= 0
 R56: 336 x0,2_43 - p0 + p2 <= 379
 R57: - 48 x0,2_48 - p0 + p2 >= 0
 R58: 336 x0,2_48 - p0 + p2 <= 384
 R59: - 58 x0,2_58 - p0 + p2 >= 0
 R60: 336 x0,2_58 - p0 + p2 <= 394
 R61: - 59 x0,2_59 - p0 + p2 >= 0
 R62: 336 x0,2_59 - p0 + p2 <= 395
 R63: - 69 x0,2_69 - p0 + p2 >= 0
 R64: 336 x0,2_69 - p0 + p2 <= 405
 R65: p0 - p3 <= -1
 R66: - 21 x0,3_21 - p0 + p3 >= 0
 R67: 336 x0,3_21 - p0 + p3 <= 357
 R68: - 38 x0,3_38 - p0 + p3 >= 0
 R69: 336 x0,3_38 - p0 + p3 <= 374
 R70: - 43 x0,3_43 - p0 + p3 >= 0
 R71: 336 x0,3_43 - p0 + p3 <= 379
 R72: - 48 x0,3_48 - p0 + p3 >= 0
 R73: 336 x0,3_48 - p0 + p3 <= 384
 R74: - 58 x0,3_58 - p0 + p3 >= 0
 R75: 336 x0,3_58 - p0 + p3 <= 394
 R76: - 59 x0,3_59 - p0 + p3 >= 0
 R77: 336 x0,3_59 - p0 + p3 <= 395
 R78: - 69 x0,3_69 - p0 + p3 >= 0
 R79: 336 x0,3_69 - p0 + p3 <= 405
 R80: p0 - p4 <= -1
 R81: - 21 x0,4_21 - p0 + p4 >= 0
 R82: 336 x0,4_21 - p0 + p4 <= 357
 R83: - 38 x0,4_38 - p0 + p4 >= 0
 R84: 336 x0,4_38 - p0 + p4 <= 374
 R85: - 43 x0,4_43 - p0 + p4 >= 0
 R86: 336 x0,4_43 - p0 + p4 <= 379
 R87: - 48 x0,4_48 - p0 + p4 >= 0
 R88: 336 x0,4_48 - p0 + p4 <= 384
 R89: - 58 x0,4_58 - p0 + p4 >= 0
 R90: 336 x0,4_58 - p0 + p4 <= 394
 R91: - 59 x0,4_59 - p0 + p4 >= 0
 R92: 336 x0,4_59 - p0 + p4 <= 395
 R93: - 69 x0,4_69 - p0 + p4 >= 0
 R94: 336 x0,4_69 - p0 + p4 <= 405
 R95: p0 - p5 <= -1
 R96: - 21 x0,5_21 - p0 + p5 >= 0
 R97: 336 x0,5_21 - p0 + p5 <= 357
 R98: - 38 x0,5_38 - p0 + p5 >= 0
 R99: 336 x0,5_38 - p0 + p5 <= 374
 R100: - 43 x0,5_43 - p0 + p5 >= 0
 R101: 336 x0,5_43 - p0 + p5 <= 379
 R102: - 48 x0,5_48 - p0 + p5 >= 0
 R103: 336 x0,5_48 - p0 + p5 <= 384
 R104: - 58 x0,5_58 - p0 + p5 >= 0
 R105: 336 x0,5_58 - p0 + p5 <= 394
 R106: - 59 x0,5_59 - p0 + p5 >= 0
 R107: 336 x0,5_59 - p0 + p5 <= 395
 R108: - 69 x0,5_69 - p0 + p5 >= 0
 R109: 336 x0,5_69 - p0 + p5 <= 405
 R110: p0 - p6 <= -1
 R111: - 21 x0,6_21 - p0 + p6 >= 0
 R112: 336 x0,6_21 - p0 + p6 <= 357
 R113: - 38 x0,6_38 - p0 + p6 >= 0
 R114: 336 x0,6_38 - p0 + p6 <= 374
 R115: - 43 x0,6_43 - p0 + p6 >= 0
 R116: 336 x0,6_43 - p0 + p6 <= 379
 R117: - 48 x0,6_48 - p0 + p6 >= 0
 R118: 336 x0,6_48 - p0 + p6 <= 384
 R119: - 58 x0,6_58 - p0 + p6 >= 0
 R120: 336 x0,6_58 - p0 + p6 <= 394
 R121: - 59 x0,6_59 - p0 + p6 >= 0
 R122: 336 x0,6_59 - p0 + p6 <= 395
 R123: - 69 x0,6_69 - p0 + p6 >= 0
 R124: 336 x0,6_69 - p0 + p6 <= 405
 R125: p0 - p7 <= -1
 R126: - 21 x0,7_21 - p0 + p7 >= 0
 R127: 336 x0,7_21 - p0 + p7 <= 357
 R128: - 38 x0,7_38 - p0 + p7 >= 0
 R129: 336 x0,7_38 - p0 + p7 <= 374
 R130: - 43 x0,7_43 - p0 + p7 >= 0
 R131: 336 x0,7_43 - p0 + p7 <= 379
 R132: - 48 x0,7_48 - p0 + p7 >= 0
 R133: 336 x0,7_48 - p0 + p7 <= 384
 R134: - 58 x0,7_58 - p0 + p7 >= 0
 R135: 336 x0,7_58 - p0 + p7 <= 394
 R136: - 59 x0,7_59 - p0 + p7 >= 0
 R137: 336 x0,7_59 - p0 + p7 <= 395
 R138: - 69 x0,7_69 - p0 + p7 >= 0
 R139: 336 x0,7_69 - p0 + p7 <= 405
 R140: p1 - p2 <= -1
 R141: - 21 x1,2_21 - p1 + p2 >= 0
 R142: 336 x1,2_21 - p1 + p2 <= 357
 R143: - 38 x1,2_38 - p1 + p2 >= 0
 R144: 336 x1,2_38 - p1 + p2 <= 374
 R145: - 43 x1,2_43 - p1 + p2 >= 0
 R146: 336 x1,2_43 - p1 + p2 <= 379
 R147: - 48 x1,2_48 - p1 + p2 >= 0
 R148: 336 x1,2_48 - p1 + p2 <= 384
 R149: - 58 x1,2_58 - p1 + p2 >= 0
 R150: 336 x1,2_58 - p1 + p2 <= 394
 R151: - 59 x1,2_59 - p1 + p2 >= 0
 R152: 336 x1,2_59 - p1 + p2 <= 395
 R153: - 69 x1,2_69 - p1 + p2 >= 0
 R154: 336 x1,2_69 - p1 + p2 <= 405
 R155: p1 - p3 <= -1
 R156: - 21 x1,3_21 - p1 + p3 >= 0
 R157: 336 x1,3_21 - p1 + p3 <= 357
 R158: - 38 x1,3_38 - p1 + p3 >= 0
 R159: 336 x1,3_38 - p1 + p3 <= 374
 R160: - 43 x1,3_43 - p1 + p3 >= 0
 R161: 336 x1,3_43 - p1 + p3 <= 379
 R162: - 48 x1,3_48 - p1 + p3 >= 0
 R163: 336 x1,3_48 - p1 + p3 <= 384
 R164: - 58 x1,3_58 - p1 + p3 >= 0
 R165: 336 x1,3_58 - p1 + p3 <= 394
 R166: - 59 x1,3_59 - p1 + p3 >= 0
 R167: 336 x1,3_59 - p1 + p3 <= 395
 R168: - 69 x1,3_69 - p1 + p3 >= 0
 R169: 336 x1,3_69 - p1 + p3 <= 405
 R170: p1 - p4 <= -1
 R171: - 21 x1,4_21 - p1 + p4 >= 0
 R172: 336 x1,4_21 - p1 + p4 <= 357
 R173: - 38 x1,4_38 - p1 + p4 >= 0
 R174: 336 x1,4_38 - p1 + p4 <= 374
 R175: - 43 x1,4_43 - p1 + p4 >= 0
 R176: 336 x1,4_43 - p1 + p4 <= 379
 R177: - 48 x1,4_48 - p1 + p4 >= 0
 R178: 336 x1,4_48 - p1 + p4 <= 384
 R179: - 58 x1,4_58 - p1 + p4 >= 0
 R180: 336 x1,4_58 - p1 + p4 <= 394
 R181: - 59 x1,4_59 - p1 + p4 >= 0
 R182: 336 x1,4_59 - p1 + p4 <= 395
 R183: - 69 x1,4_69 - p1 + p4 >= 0
 R184: 336 x1,4_69 - p1 + p4 <= 405
 R185: p1 - p5 <= -1
 R186: - 21 x1,5_21 - p1 + p5 >= 0
 R187: 336 x1,5_21 - p1 + p5 <= 357
 R188: - 38 x1,5_38 - p1 + p5 >= 0
 R189: 336 x1,5_38 - p1 + p5 <= 374
 R190: - 43 x1,5_43 - p1 + p5 >= 0
 R191: 336 x1,5_43 - p1 + p5 <= 379
 R192: - 48 x1,5_48 - p1 + p5 >= 0
 R193: 336 x1,5_48 - p1 + p5 <= 384
 R194: - 58 x1,5_58 - p1 + p5 >= 0
 R195: 336 x1,5_58 - p1 + p5 <= 394
 R196: - 59 x1,5_59 - p1 + p5 >= 0
 R197: 336 x1,5_59 - p1 + p5 <= 395
 R198: - 69 x1,5_69 - p1 + p5 >= 0
 R199: 336 x1,5_69 - p1 + p5 <= 405
 R200: p1 - p6 <= -1
 R201: - 21 x1,6_21 - p1 + p6 >= 0
 R202: 336 x1,6_21 - p1 + p6 <= 357
 R203: - 38 x1,6_38 - p1 + p6 >= 0
 R204: 336 x1,6_38 - p1 + p6 <= 374
 R205: - 43 x1,6_43 - p1 + p6 >= 0
 R206: 336 x1,6_43 - p1 + p6 <= 379
 R207: - 48 x1,6_48 - p1 + p6 >= 0
 R208: 336 x1,6_48 - p1 + p6 <= 384
 R209: - 58 x1,6_58 - p1 + p6 >= 0
 R210: 336 x1,6_58 - p1 + p6 <= 394
 R211: - 59 x1,6_59 - p1 + p6 >= 0
 R212: 336 x1,6_59 - p1 + p6 <= 395
 R213: - 69 x1,6_69 - p1 + p6 >= 0
 R214: 336 x1,6_69 - p1 + p6 <= 405
 R215: p1 - p7 <= -1
 R216: - 21 x1,7_21 - p1 + p7 >= 0
 R217: 336 x1,7_21 - p1 + p7 <= 357
 R218: - 38 x1,7_38 - p1 + p7 >= 0
 R219: 336 x1,7_38 - p1 + p7 <= 374
 R220: - 43 x1,7_43 - p1 + p7 >= 0
 R221: 336 x1,7_43 - p1 + p7 <= 379
 R222: - 48 x1,7_48 - p1 + p7 >= 0
 R223: 336 x1,7_48 - p1 + p7 <= 384
 R224: - 58 x1,7_58 - p1 + p7 >= 0
 R225: 336 x1,7_58 - p1 + p7 <= 394
 R226: - 59 x1,7_59 - p1 + p7 >= 0
 R227: 336 x1,7_59 - p1 + p7 <= 395
 R228: - 69 x1,7_69 - p1 + p7 >= 0
 R229: 336 x1,7_69 - p1 + p7 <= 405
 R230: p2 - p3 <= -1
 R231: - 21 x2,3_21 - p2 + p3 >= 0
 R232: 336 x2,3_21 - p2 + p3 <= 357
 R233: - 38 x2,3_38 - p2 + p3 >= 0
 R234: 336 x2,3_38 - p2 + p3 <= 374
 R235: - 43 x2,3_43 - p2 + p3 >= 0
 R236: 336 x2,3_43 - p2 + p3 <= 379
 R237: - 48 x2,3_48 - p2 + p3 >= 0
 R238: 336 x2,3_48 - p2 + p3 <= 384
 R239: - 58 x2,3_58 - p2 + p3 >= 0
 R240: 336 x2,3_58 - p2 + p3 <= 394
 R241: - 59 x2,3_59 - p2 + p3 >= 0
 R242: 336 x2,3_59 - p2 + p3 <= 395
 R243: - 69 x2,3_69 - p2 + p3 >= 0
 R244: 336 x2,3_69 - p2 + p3 <= 405
 R245: p2 - p4 <= -1
 R246: - 21 x2,4_21 - p2 + p4 >= 0
 R247: 336 x2,4_21 - p2 + p4 <= 357
 R248: - 38 x2,4_38 - p2 + p4 >= 0
 R249: 336 x2,4_38 - p2 + p4 <= 374
 R250: - 43 x2,4_43 - p2 + p4 >= 0
 R251: 336 x2,4_43 - p2 + p4 <= 379
 R252: - 48 x2,4_48 - p2 + p4 >= 0
 R253: 336 x2,4_48 - p2 + p4 <= 384
 R254: - 58 x2,4_58 - p2 + p4 >= 0
 R255: 336 x2,4_58 - p2 + p4 <= 394
 R256: - 59 x2,4_59 - p2 + p4 >= 0
 R257: 336 x2,4_59 - p2 + p4 <= 395
 R258: - 69 x2,4_69 - p2 + p4 >= 0
 R259: 336 x2,4_69 - p2 + p4 <= 405
 R260: p2 - p5 <= -1
 R261: - 21 x2,5_21 - p2 + p5 >= 0
 R262: 336 x2,5_21 - p2 + p5 <= 357
 R263: - 38 x2,5_38 - p2 + p5 >= 0
 R264: 336 x2,5_38 - p2 + p5 <= 374
 R265: - 43 x2,5_43 - p2 + p5 >= 0
 R266: 336 x2,5_43 - p2 + p5 <= 379
 R267: - 48 x2,5_48 - p2 + p5 >= 0
 R268: 336 x2,5_48 - p2 + p5 <= 384
 R269: - 58 x2,5_58 - p2 + p5 >= 0
 R270: 336 x2,5_58 - p2 + p5 <= 394
 R271: - 59 x2,5_59 - p2 + p5 >= 0
 R272: 336 x2,5_59 - p2 + p5 <= 395
 R273: - 69 x2,5_69 - p2 + p5 >= 0
 R274: 336 x2,5_69 - p2 + p5 <= 405
 R275: p2 - p6 <= -1
 R276: - 21 x2,6_21 - p2 + p6 >= 0
 R277: 336 x2,6_21 - p2 + p6 <= 357
 R278: - 38 x2,6_38 - p2 + p6 >= 0
 R279: 336 x2,6_38 - p2 + p6 <= 374
 R280: - 43 x2,6_43 - p2 + p6 >= 0
 R281: 336 x2,6_43 - p2 + p6 <= 379
 R282: - 48 x2,6_48 - p2 + p6 >= 0
 R283: 336 x2,6_48 - p2 + p6 <= 384
 R284: - 58 x2,6_58 - p2 + p6 >= 0
 R285: 336 x2,6_58 - p2 + p6 <= 394
 R286: - 59 x2,6_59 - p2 + p6 >= 0
 R287: 336 x2,6_59 - p2 + p6 <= 395
 R288: - 69 x2,6_69 - p2 + p6 >= 0
 R289: 336 x2,6_69 - p2 + p6 <= 405
 R290: p2 - p7 <= -1
 R291: - 21 x2,7_21 - p2 + p7 >= 0
 R292: 336 x2,7_21 - p2 + p7 <= 357
 R293: - 38 x2,7_38 - p2 + p7 >= 0
 R294: 336 x2,7_38 - p2 + p7 <= 374
 R295: - 43 x2,7_43 - p2 + p7 >= 0
 R296: 336 x2,7_43 - p2 + p7 <= 379
 R297: - 48 x2,7_48 - p2 + p7 >= 0
 R298: 336 x2,7_48 - p2 + p7 <= 384
 R299: - 58 x2,7_58 - p2 + p7 >= 0
 R300: 336 x2,7_58 - p2 + p7 <= 394
 R301: - 59 x2,7_59 - p2 + p7 >= 0
 R302: 336 x2,7_59 - p2 + p7 <= 395
 R303: - 69 x2,7_69 - p2 + p7 >= 0
 R304: 336 x2,7_69 - p2 + p7 <= 405
 R305: p3 - p4 <= -1
 R306: - 21 x3,4_21 - p3 + p4 >= 0
 R307: 336 x3,4_21 - p3 + p4 <= 357
 R308: - 38 x3,4_38 - p3 + p4 >= 0
 R309: 336 x3,4_38 - p3 + p4 <= 374
 R310: - 43 x3,4_43 - p3 + p4 >= 0
 R311: 336 x3,4_43 - p3 + p4 <= 379
 R312: - 48 x3,4_48 - p3 + p4 >= 0
 R313: 336 x3,4_48 - p3 + p4 <= 384
 R314: - 58 x3,4_58 - p3 + p4 >= 0
 R315: 336 x3,4_58 - p3 + p4 <= 394
 R316: - 59 x3,4_59 - p3 + p4 >= 0
 R317: 336 x3,4_59 - p3 + p4 <= 395
 R318: - 69 x3,4_69 - p3 + p4 >= 0
 R319: 336 x3,4_69 - p3 + p4 <= 405
 R320: p3 - p5 <= -1
 R321: - 21 x3,5_21 - p3 + p5 >= 0
 R322: 336 x3,5_21 - p3 + p5 <= 357
 R323: - 38 x3,5_38 - p3 + p5 >= 0
 R324: 336 x3,5_38 - p3 + p5 <= 374
 R325: - 43 x3,5_43 - p3 + p5 >= 0
 R326: 336 x3,5_43 - p3 + p5 <= 379
 R327: - 48 x3,5_48 - p3 + p5 >= 0
 R328: 336 x3,5_48 - p3 + p5 <= 384
 R329: - 58 x3,5_58 - p3 + p5 >= 0
 R330: 336 x3,5_58 - p3 + p5 <= 394
 R331: - 59 x3,5_59 - p3 + p5 >= 0
 R332: 336 x3,5_59 - p3 + p5 <= 395
 R333: - 69 x3,5_69 - p3 + p5 >= 0
 R334: 336 x3,5_69 - p3 + p5 <= 405
 R335: p3 - p6 <= -1
 R336: - 21 x3,6_21 - p3 + p6 >= 0
 R337: 336 x3,6_21 - p3 + p6 <= 357
 R338: - 38 x3,6_38 - p3 + p6 >= 0
 R339: 336 x3,6_38 - p3 + p6 <= 374
 R340: - 43 x3,6_43 - p3 + p6 >= 0
 R341: 336 x3,6_43 - p3 + p6 <= 379
 R342: - 48 x3,6_48 - p3 + p6 >= 0
 R343: 336 x3,6_48 - p3 + p6 <= 384
 R344: - 58 x3,6_58 - p3 + p6 >= 0
 R345: 336 x3,6_58 - p3 + p6 <= 394
 R346: - 59 x3,6_59 - p3 + p6 >= 0
 R347: 336 x3,6_59 - p3 + p6 <= 395
 R348: - 69 x3,6_69 - p3 + p6 >= 0
 R349: 336 x3,6_69 - p3 + p6 <= 405
 R350: p3 - p7 <= -1
 R351: - 21 x3,7_21 - p3 + p7 >= 0
 R352: 336 x3,7_21 - p3 + p7 <= 357
 R353: - 38 x3,7_38 - p3 + p7 >= 0
 R354: 336 x3,7_38 - p3 + p7 <= 374
 R355: - 43 x3,7_43 - p3 + p7 >= 0
 R356: 336 x3,7_43 - p3 + p7 <= 379
 R357: - 48 x3,7_48 - p3 + p7 >= 0
 R358: 336 x3,7_48 - p3 + p7 <= 384
 R359: - 58 x3,7_58 - p3 + p7 >= 0
 R360: 336 x3,7_58 - p3 + p7 <= 394
 R361: - 59 x3,7_59 - p3 + p7 >= 0
 R362: 336 x3,7_59 - p3 + p7 <= 395
 R363: - 69 x3,7_69 - p3 + p7 >= 0
 R364: 336 x3,7_69 - p3 + p7 <= 405
 R365: p4 - p5 <= -1
 R366: - 21 x4,5_21 - p4 + p5 >= 0
 R367: 336 x4,5_21 - p4 + p5 <= 357
 R368: - 38 x4,5_38 - p4 + p5 >= 0
 R369: 336 x4,5_38 - p4 + p5 <= 374
 R370: - 43 x4,5_43 - p4 + p5 >= 0
 R371: 336 x4,5_43 - p4 + p5 <= 379
 R372: - 48 x4,5_48 - p4 + p5 >= 0
 R373: 336 x4,5_48 - p4 + p5 <= 384
 R374: - 58 x4,5_58 - p4 + p5 >= 0
 R375: 336 x4,5_58 - p4 + p5 <= 394
 R376: - 59 x4,5_59 - p4 + p5 >= 0
 R377: 336 x4,5_59 - p4 + p5 <= 395
 R378: - 69 x4,5_69 - p4 + p5 >= 0
 R379: 336 x4,5_69 - p4 + p5 <= 405
 R380: p4 - p6 <= -1
 R381: - 21 x4,6_21 - p4 + p6 >= 0
 R382: 336 x4,6_21 - p4 + p6 <= 357
 R383: - 38 x4,6_38 - p4 + p6 >= 0
 R384: 336 x4,6_38 - p4 + p6 <= 374
 R385: - 43 x4,6_43 - p4 + p6 >= 0
 R386: 336 x4,6_43 - p4 + p6 <= 379
 R387: - 48 x4,6_48 - p4 + p6 >= 0
 R388: 336 x4,6_48 - p4 + p6 <= 384
 R389: - 58 x4,6_58 - p4 + p6 >= 0
 R390: 336 x4,6_58 - p4 + p6 <= 394
 R391: - 59 x4,6_59 - p4 + p6 >= 0
 R392: 336 x4,6_59 - p4 + p6 <= 395
 R393: - 69 x4,6_69 - p4 + p6 >= 0
 R394: 336 x4,6_69 - p4 + p6 <= 405
 R395: p4 - p7 <= -1
 R396: - 21 x4,7_21 - p4 + p7 >= 0
 R397: 336 x4,7_21 - p4 + p7 <= 357
 R398: - 38 x4,7_38 - p4 + p7 >= 0
 R399: 336 x4,7_38 - p4 + p7 <= 374
 R400: - 43 x4,7_43 - p4 + p7 >= 0
 R401: 336 x4,7_43 - p4 + p7 <= 379
 R402: - 48 x4,7_48 - p4 + p7 >= 0
 R403: 336 x4,7_48 - p4 + p7 <= 384
 R404: - 58 x4,7_58 - p4 + p7 >= 0
 R405: 336 x4,7_58 - p4 + p7 <= 394
 R406: - 59 x4,7_59 - p4 + p7 >= 0
 R407: 336 x4,7_59 - p4 + p7 <= 395
 R408: - 69 x4,7_69 - p4 + p7 >= 0
 R409: 336 x4,7_69 - p4 + p7 <= 405
 R410: p5 - p6 <= -1
 R411: - 21 x5,6_21 - p5 + p6 >= 0
 R412: 336 x5,6_21 - p5 + p6 <= 357
 R413: - 38 x5,6_38 - p5 + p6 >= 0
 R414: 336 x5,6_38 - p5 + p6 <= 374
 R415: - 43 x5,6_43 - p5 + p6 >= 0
 R416: 336 x5,6_43 - p5 + p6 <= 379
 R417: - 48 x5,6_48 - p5 + p6 >= 0
 R418: 336 x5,6_48 - p5 + p6 <= 384
 R419: - 58 x5,6_58 - p5 + p6 >= 0
 R420: 336 x5,6_58 - p5 + p6 <= 394
 R421: - 59 x5,6_59 - p5 + p6 >= 0
 R422: 336 x5,6_59 - p5 + p6 <= 395
 R423: - 69 x5,6_69 - p5 + p6 >= 0
 R424: 336 x5,6_69 - p5 + p6 <= 405
 R425: p5 - p7 <= -1
 R426: - 21 x5,7_21 - p5 + p7 >= 0
 R427: 336 x5,7_21 - p5 + p7 <= 357
 R428: - 38 x5,7_38 - p5 + p7 >= 0
 R429: 336 x5,7_38 - p5 + p7 <= 374
 R430: - 43 x5,7_43 - p5 + p7 >= 0
 R431: 336 x5,7_43 - p5 + p7 <= 379
 R432: - 48 x5,7_48 - p5 + p7 >= 0
 R433: 336 x5,7_48 - p5 + p7 <= 384
 R434: - 58 x5,7_58 - p5 + p7 >= 0
 R435: 336 x5,7_58 - p5 + p7 <= 394
 R436: - 59 x5,7_59 - p5 + p7 >= 0
 R437: 336 x5,7_59 - p5 + p7 <= 395
 R438: - 69 x5,7_69 - p5 + p7 >= 0
 R439: 336 x5,7_69 - p5 + p7 <= 405
 R440: p6 - p7 <= -1
 R441: - 21 x6,7_21 - p6 + p7 >= 0
 R442: 336 x6,7_21 - p6 + p7 <= 357
 R443: - 38 x6,7_38 - p6 + p7 >= 0
 R444: 336 x6,7_38 - p6 + p7 <= 374
 R445: - 43 x6,7_43 - p6 + p7 >= 0
 R446: 336 x6,7_43 - p6 + p7 <= 379
 R447: - 48 x6,7_48 - p6 + p7 >= 0
 R448: 336 x6,7_48 - p6 + p7 <= 384
 R449: - 58 x6,7_58 - p6 + p7 >= 0
 R450: 336 x6,7_58 - p6 + p7 <= 394
 R451: - 59 x6,7_59 - p6 + p7 >= 0
 R452: 336 x6,7_59 - p6 + p7 <= 395
 R453: - 69 x6,7_69 - p6 + p7 >= 0
 R454: 336 x6,7_69 - p6 + p7 <= 405
 R455: z0 - z1 >= 0
 R456: z1 - z2 >= 0
 R457: z2 - z3 >= 0
 R458: z3 - z4 >= 0
 R459: z4 - z5 >= 0
 R460: z5 - z6 >= 0
 R461: z6 - z7 >= 0
Bounds
Binaries
 x0,1_21 x0,1_38 x0,1_43 x0,1_48 x0,1_58 x0,1_59 x0,1_69 x0,2_21 x0,2_38
 x0,2_43 x0,2_48 x0,2_58 x0,2_59 x0,2_69 x0,3_21 x0,3_38 x0,3_43 x0,3_48
 x0,3_58 x0,3_59 x0,3_69 x0,4_21 x0,4_38 x0,4_43 x0,4_48 x0,4_58 x0,4_59
 x0,4_69 x0,5_21 x0,5_38 x0,5_43 x0,5_48 x0,5_58 x0,5_59 x0,5_69 x0,6_21
 x0,6_38 x0,6_43 x0,6_48 x0,6_58 x0,6_59 x0,6_69 x0,7_21 x0,7_38 x0,7_43
 x0,7_48 x0,7_58 x0,7_59 x0,7_69 x1,2_21 x1,2_38 x1,2_43 x1,2_48 x1,2_58
 x1,2_59 x1,2_69 x1,3_21 x1,3_38 x1,3_43 x1,3_48 x1,3_58 x1,3_59 x1,3_69
 x1,4_21 x1,4_38 x1,4_43 x1,4_48 x1,4_58 x1,4_59 x1,4_69 x1,5_21 x1,5_38
 x1,5_43 x1,5_48 x1,5_58 x1,5_59 x1,5_69 x1,6_21 x1,6_38 x1,6_43 x1,6_48
 x1,6_58 x1,6_59 x1,6_69 x1,7_21 x1,7_38 x1,7_43 x1,7_48 x1,7_58 x1,7_59
 x1,7_69 x2,3_21 x2,3_38 x2,3_43 x2,3_48 x2,3_58 x2,3_59 x2,3_69 x2,4_21
 x2,4_38 x2,4_43 x2,4_48 x2,4_58 x2,4_59 x2,4_69 x2,5_21 x2,5_38 x2,5_43
 x2,5_48 x2,5_58 x2,5_59 x2,5_69 x2,6_21 x2,6_38 x2,6_43 x2,6_48 x2,6_58
 x2,6_59 x2,6_69 x2,7_21 x2,7_38 x2,7_43 x2,7_48 x2,7_58 x2,7_59 x2,7_69
 x3,4_21 x3,4_38 x3,4_43 x3,4_48 x3,4_58 x3,4_59 x3,4_69 x3,5_21 x3,5_38
 x3,5_43 x3,5_48 x3,5_58 x3,5_59 x3,5_69 x3,6_21 x3,6_38 x3,6_43 x3,6_48
 x3,6_58 x3,6_59 x3,6_69 x3,7_21 x3,7_38 x3,7_43 x3,7_48 x3,7_58 x3,7_59
 x3,7_69 x4,5_21 x4,5_38 x4,5_43 x4,5_48 x4,5_58 x4,5_59 x4,5_69 x4,6_21
 x4,6_38 x4,6_43 x4,6_48 x4,6_58 x4,6_59 x4,6_69 x4,7_21 x4,7_38 x4,7_43
 x4,7_48 x4,7_58 x4,7_59 x4,7_69 x5,6_21 x5,6_38 x5,6_43 x5,6_48 x5,6_58
 x5,6_59 x5,6_69 x5,7_21 x5,7_38 x5,7_43 x5,7_48 x5,7_58 x5,7_59 x5,7_69
 x6,7_21 x6,7_38 x6,7_43 x6,7_48 x6,7_58 x6,7_59 x6,7_69 z0 z1 z2 z3 z4 z5
 z6 z7
Generals
 p0 p1 p2 p3 p4 p5 p6 p7
End
