logs/drand/ip/drand-07-075-0.sol
# Objective value = 6
x0,1_21 0
x0,1_38 0
x0,1_43 0
x0,1_48 0
x0,1_58 0
x0,1_59 0
x0,1_69 0
x0,2_21 1
x0,2_38 0
x0,2_43 0
x0,2_48 0
x0,2_58 0
x0,2_59 0
x0,2_69 0
x0,3_21 0
x0,3_38 0
x0,3_43 1
x0,3_48 0
x0,3_58 0
x0,3_59 0
x0,3_69 0
x0,4_21 0
x0,4_38 0
x0,4_43 0
x0,4_48 0
x0,4_58 0
x0,4_59 1
x0,4_69 0
x0,5_21 0
x0,5_38 0
x0,5_43 0
x0,5_48 0
x0,5_58 0
x0,5_59 0
x0,5_69 1
x0,6_21 0
x0,6_38 0
x0,6_43 0
x0,6_48 0
x0,6_58 0
x0,6_59 0
x0,6_69 0
x0,7_21 0
x0,7_38 0
x0,7_43 0
x0,7_48 0
x0,7_58 0
x0,7_59 0
x0,7_69 0
x1,2_21 0
x1,2_38 0
x1,2_43 0
x1,2_48 0
x1,2_58 0
x1,2_59 0
x1,2_69 0
x1,3_21 0
x1,3_38 0
x1,3_43 0
x1,3_48 0
x1,3_58 0
x1,3_59 0
x1,3_69 0
x1,4_21 0
x1,4_38 0
x1,4_43 0
x1,4_48 0
x1,4_58 1
x1,4_59 0
x1,4_69 0
x1,5_21 0
x1,5_38 0
x1,5_43 0
x1,5_48 0
x1,5_58 0
x1,5_59 0
x1,5_69 0
x1,6_21 0
x1,6_38 0
x1,6_43 0
x1,6_48 0
x1,6_58 0
x1,6_59 0
x1,6_69 0
x1,7_21 0
x1,7_38 0
x1,7_43 0
x1,7_48 0
x1,7_58 0
x1,7_59 0
x1,7_69 0
x2,3_21 0
x2,3_38 0
x2,3_43 0
x2,3_48 0
x2,3_58 0
x2,3_59 0
x2,3_69 0
x2,4_21 0
x2,4_38 1
x2,4_43 0
x2,4_48 0
x2,4_58 0
x2,4_59 0
x2,4_69 0
x2,5_21 0
x2,5_38 0
x2,5_43 0
x2,5_48 1
x2,5_58 0
x2,5_59 0
x2,5_69 0
x2,6_21 0
x2,6_38 0
x2,6_43 0
x2,6_48 0
x2,6_58 0
x2,6_59 0
x2,6_69 0
x2,7_21 0
x2,7_38 0
x2,7_43 0
x2,7_48 0
x2,7_58 0
x2,7_59 0
x2,7_69 0
x3,4_21 0
x3,4_38 0
x3,4_43 0
x3,4_48 0
x3,4_58 0
x3,4_59 0
x3,4_69 0
x3,5_21 0
x3,5_38 0
x3,5_43 0
x3,5_48 0
x3,5_58 0
x3,5_59 0
x3,5_69 0
x3,6_21 0
x3,6_38 0
x3,6_43 0
x3,6_48 0
x3,6_58 0
x3,6_59 0
x3,6_69 0
x3,7_21 0
x3,7_38 0
x3,7_43 0
x3,7_48 0
x3,7_58 0
x3,7_59 0
x3,7_69 0
x4,5_21 0
x4,5_38 0
x4,5_43 0
x4,5_48 0
x4,5_58 0
x4,5_59 0
x4,5_69 0
x4,6_21 0
x4,6_38 0
x4,6_43 0
x4,6_48 0
x4,6_58 0
x4,6_59 0
x4,6_69 0
x4,7_21 0
x4,7_38 0
x4,7_43 0
x4,7_48 0
x4,7_58 0
x4,7_59 0
x4,7_69 0
x5,6_21 0
x5,6_38 0
x5,6_43 0
x5,6_48 0
x5,6_58 0
x5,6_59 0
x5,6_69 0
x5,7_21 0
x5,7_38 0
x5,7_43 0
x5,7_48 0
x5,7_58 0
x5,7_59 0
x5,7_69 0
x6,7_21 0
x6,7_38 0
x6,7_43 0
x6,7_48 0
x6,7_58 0
x6,7_59 0
x6,7_69 0
z0 1
z1 1
z2 1
z3 1
z4 1
z5 1
z6 0
z7 0
p0 0
p1 1
p2 21
p3 43
p4 59
p5 69
p6 70
p7 71
